p cnf 100 20
x 3 -4 -5 -8 -14 -15 -16 -18 19 -21 -23 25 -27 28 -29 -30 -31 32 -33 -34 37 39 -41 -42 43 47 -48 -49 51 -52 -55 -56 57 59 -60 -61 63 64 -65 -67 68 -75 -80 -81 -82 84 -87 -88 -89 90 93 -95 -97 -99 0
x -3 14 18 24 25 -26 -28 29 30 -31 -32 -33 34 35 -37 -40 -41 -44 45 -47 -51 -55 56 -57 -58 60 61 -62 -63 71 72 -73 74 -78 -80 81 82 83 84 -86 -87 -88 89 -90 91 -93 -95 99 0
x 1 -8 -9 -10 14 -15 16 -18 -20 -21 23 24 25 28 -30 36 38 39 40 41 42 44 -45 46 -48 50 -53 54 -58 -63 64 -65 -68 -69 -70 71 -72 -73 -74 -76 83 -85 -87 -88 89 -90 91 -92 94 95 -96 100 0
x -1 4 5 -6 9 11 12 13 -17 -22 24 25 26 28 29 -31 -32 33 34 37 38 41 -46 47 48 49 -51 53 55 -61 62 -63 -65 66 67 68 69 70 -75 -77 -78 79 -80 -85 87 91 -94 -95 -96 -97 0
x -1 2 3 -5 -7 -13 14 -15 17 19 23 -24 -25 -26 -27 29 34 35 36 -37 38 -39 41 -42 43 -46 52 54 -57 60 -61 64 65 -66 69 -70 73 74 -76 -78 79 84 85 86 88 89 -90 94 97 0
x 1 2 5 6 12 14 16 -17 23 -28 -30 -31 32 33 35 -36 -37 38 -41 42 -43 -44 45 47 52 56 58 -59 -60 63 -65 -68 69 70 -71 72 73 -74 -76 77 82 -83 84 -85 86 87 -88 89 -90 92 -93 -94 99 -100 0
x -1 6 -7 -8 9 -11 12 13 -15 -20 -22 30 -31 -32 -34 -36 -37 38 39 -40 42 -43 44 46 49 -51 52 -55 61 62 63 -65 69 70 71 73 -76 -78 -79 81 85 88 91 95 -99 100 0
x -2 3 -7 -8 -9 -10 -11 -13 -15 -16 18 -20 21 25 -26 27 28 -29 32 -36 37 -41 45 -47 48 -51 52 -55 56 57 58 -63 -64 -65 -66 67 72 73 79 -80 -82 -83 84 85 -87 91 93 -99 100 0
x -1 2 -3 5 7 8 -10 11 -13 -14 -17 20 22 -23 -27 29 -30 -31 32 33 -34 -40 42 -44 46 -52 60 61 62 -65 66 68 -70 -71 -72 -73 75 77 -78 -82 -83 86 87 88 89 90 91 92 -95 96 97 99 100 0
x 2 -3 -5 -9 11 13 -14 15 -16 -17 -18 19 21 22 23 -25 27 -28 -30 -32 -36 37 -38 -41 43 48 -51 -53 -57 -60 -61 -62 63 -64 -65 68 -69 -70 75 -76 78 -81 82 -84 85 86 89 90 -91 92 -93 -94 -96 -97 -98 0
x 1 -2 -3 4 -6 -8 -10 -13 -14 -20 -24 27 28 35 -37 -42 -44 45 -47 -49 -50 54 56 -58 -60 -61 62 64 66 -68 69 -71 73 74 78 -79 -82 83 -84 -85 -88 89 90 91 -92 93 -95 -96 -97 98 0
x -6 8 11 17 18 19 -20 -21 -22 -23 -24 25 -26 -29 30 31 -34 36 40 41 42 45 52 57 -58 -59 60 -61 -62 -63 -65 -68 -71 72 -74 76 -78 -80 -84 -85 -86 -87 88 -90 91 -92 93 95 97 -98 0
x 1 2 4 -8 9 12 14 19 -20 -22 24 26 27 -29 -30 -35 -36 37 39 -40 41 -43 44 45 -46 47 -48 49 50 51 54 55 -56 58 -59 -61 62 -70 -72 -73 76 -77 80 81 -82 83 86 -90 92 95 97 99 -100 0
x 2 3 4 -7 -8 9 10 11 14 17 21 -22 23 -24 26 27 28 -31 32 33 35 37 41 -43 46 -47 49 -55 -58 60 66 68 -69 70 -73 -77 79 -81 -82 83 -87 88 89 -90 -94 99 0
x -1 -2 -8 9 -10 12 -13 16 17 21 22 -23 32 -34 35 -40 41 42 -43 -44 46 -50 -53 -57 -60 62 -65 -66 68 -69 -75 79 80 82 -83 84 -85 86 87 -90 91 94 100 0
x 3 4 5 -6 -7 -8 -14 16 -18 -19 25 -26 -29 -33 -39 41 -43 44 -46 50 52 -54 -55 -57 60 62 -63 -64 -66 67 -68 70 72 73 -74 -76 77 -79 81 -83 88 -90 92 -93 94 96 -97 -99 0
x -5 -7 8 -10 -11 -12 15 16 -17 -18 -19 -20 -21 -25 -26 29 32 -33 34 35 -36 -37 39 -40 43 45 47 48 -51 -53 -54 -55 -57 58 -59 61 -62 63 64 -66 68 69 70 -71 72 -75 77 -80 -85 -86 93 -94 -96 -97 -98 -99 0
x 2 3 4 -8 9 11 -15 -16 -17 18 -20 -24 28 30 32 34 36 41 43 -47 48 50 51 52 53 54 -56 57 -58 59 60 -62 -63 -65 66 -67 -68 69 -70 73 74 75 -76 79 -81 -82 -85 87 89 -91 92 -93 94 95 97 98 -99 100 0
x 4 5 -6 -7 -8 -9 -14 16 -18 -21 -22 25 -26 27 29 -31 32 -34 -39 41 43 -44 -47 -50 -51 52 53 -54 55 56 -58 61 -65 66 -68 -69 -70 72 -75 -80 -81 83 -89 -91 -94 95 99 100 0
x 1 2 4 -7 8 9 -10 -13 -16 -19 22 25 28 -29 30 -31 -34 40 43 -45 47 -48 -50 -51 -52 -53 -55 -58 61 -62 64 -69 -71 -74 76 -77 82 -83 85 -93 94 95 -96 -97 -99 100 0
g -20